NAME: rue_20_3
TYPE: TSP
DIMENSION: 20
EDGE_WEIGHT_TYPE: EUC_2D
NODE_COORD_SECTION
1 38 77
2 38 17
3 46 7
4 46 63
5 13 28
6 24 47
7 3 46
8 54 65
9 18 63
10 47 12
11 4 16
12 42 24
13 8 14
14 66 51
15 50 34
16 46 56
17 62 29
18 36 59
19 19 92
20 19 79
